38
5
44
32
26
10
3
27
12
45
13
18
19
10
8
17
20
13
14
40
48
9
10
47
38
25
13
37
8
36
19
38
39
21
19
16
10
15
33
42
24
33
28
35
33
36
22
37
20
7
49
21
43
28
24
31
47
23
3
32
34
29
10
23
44
22
22
28
16
33
19
30
46
34
42
47
3
38
4
39
30
46
50
35
42
21
36
28
38
3
2
34
1
3
8
19
31
8
37
46
50
26
20
32
27
26
11
38
10
36
15
44
8
48
27
33
29
14
35
42
6
31
30
36
16
45
20
29
49
12
30
40
35
2
42
24
23
5
31
12
48
15
1
30
43
7
1
11
9
5
47
25
33
34
46
29
41
21
41
1
48
35
37
27
39
21
9
4
49
30
7
11
28
27
30
25
25
35
42
30
50
46
22
10
4
42
49
40
12
21
4
17
26
4
45
7
46
33
34
13
